Examples/LP2.lp
MINIMIZE
    obj: x1 + x2 + x3 + x4 + x5 + x6 + x7 + x8
SUBJECT TO
      x1        +   x3 +   x4 -   x5        -   x7 -   x8 = 320
    2 x1 +   x2        + 2 x4 +   x5 -   x6               = 440
      x1                             +   x6 +   x7 +   x8 = 345
    2 x1        -   x3               +   x6 +   x7 -   x8 = 376
END
