Examples/LP2.mps
NAME obj
ROWS
 N  OBJ
 E  R0      
 E  R1      
 E  R2      
 E  R3      
COLUMNS
    x1        OBJ       1
    x1        R0        1
    x1        R1        2
    x1        R2        1
    x1        R3        2
    x2        OBJ       1
    x2        R1        1
    x3        OBJ       1
    x3        R0        1
    x3        R3        -1
    x4        OBJ       1
    x4        R0        1
    x4        R1        2
    x5        OBJ       1
    x5        R0        -1
    x5        R1        1
    x6        OBJ       1
    x6        R1        -1
    x6        R2        1
    x6        R3        1
    x7        OBJ       1
    x7        R0        -1
    x7        R2        1
    x7        R3        1
    x8        OBJ       1
    x8        R0        -1
    x8        R2        1
    x8        R3        -1
RHS
    RHS1      R0        320
    RHS1      R1        440
    RHS1      R2        345
    RHS1      R3        376
BOUNDS
ENDATA
